
List of user-set options:

                                    Name   Value                used
                           compl_inf_tol = 1                     yes
                         constr_viol_tol = 1                     yes
                            dual_inf_tol = 1000                  yes
                           linear_solver = ma97                  yes
                              ma86_small = 1e-30                  no
                                  ma86_u = 0.0001                 no
                              ma97_order = best                  yes
                              ma97_small = 1e-30                 yes
                            ma97_switch1 = at_start              yes
                            ma97_switch2 = od_hd_reuse           yes
                                  ma97_u = 1e-06                 yes
                               ma97_umax = 0.5                   yes
                                max_iter = 1000                  yes
                    max_refinement_steps = 20                    yes
                    min_refinement_steps = 5                     yes
                                 mu_init = 1e-06                 yes
           mu_superlinear_decrease_power = 1.25                  yes
                   nlp_scaling_min_value = 1e-08                 yes
                        option_file_name = Preset_Case_249_pf.opt  yes
                             output_file = ./tmp/Preset_Case_249_pf.output  yes
                      print_user_options = yes                   yes
        required_infeasibility_reduction = 1                      no
                                     tol = 1e-08                 yes
                   warm_start_bound_frac = 1e-20                 yes
                   warm_start_bound_push = 1e-20                 yes
                   warm_start_init_point = yes                   yes
              warm_start_mult_bound_push = 1e-20                 yes
                warm_start_mult_init_max = 1e+40                 yes
             warm_start_slack_bound_frac = 1e-20                 yes
             warm_start_slack_bound_push = 1e-20                 yes

******************************************************************************
This program contains Ipopt, a library for large-scale nonlinear optimization.
 Ipopt is released as open source code under the Eclipse Public License (EPL).
         For more information visit http://projects.coin-or.org/Ipopt
******************************************************************************

This is Ipopt version 3.12.10, running with linear solver ma97.

Number of nonzeros in equality constraint Jacobian...:   123442
Number of nonzeros in inequality constraint Jacobian.:      213
Number of nonzeros in Lagrangian Hessian.............:    49069

Total number of variables............................:    31591
                     variables with only lower bounds:    12912
                variables with lower and upper bounds:    15130
                     variables with only upper bounds:        0
Total number of equality constraints.................:    31483
Total number of inequality constraints...............:       25
        inequality constraints with only lower bounds:        4
   inequality constraints with lower and upper bounds:        0
        inequality constraints with only upper bounds:       21

iter    objective    inf_pr   inf_du lg(mu)  ||d||  lg(rg) alpha_du alpha_pr  ls
   0 -5.1484116e+00 4.02e-03 1.02e+00  -6.0 0.00e+00    -  0.00e+00 0.00e+00   0
   1 -5.1537166e+00 9.30e+00 3.35e+01  -6.0 3.73e+05    -  8.97e-05 1.26e-03h  1
   2 -5.1536737e+00 9.30e+00 3.35e+01  -6.0 1.49e+03    -  1.16e-04 3.49e-05h  1
   3 -5.1498502e+00 9.29e+00 7.84e+01  -6.0 1.27e+04    -  9.97e-05 1.64e-03h  2
   4 -5.1484362e+00 9.28e+00 7.61e+01  -6.0 2.21e+03    -  4.48e-02 1.16e-03h  3
   5 -5.1478044e+00 9.27e+00 7.53e+01  -6.0 2.62e+04    -  1.30e-03 5.01e-04h  6
   6 -5.1477702e+00 9.27e+00 7.57e+01  -6.0 2.12e+03    -  4.92e-03 2.82e-05h 13
   7 -5.1477519e+00 9.27e+00 7.60e+01  -6.0 2.11e+03    -  2.69e-03 1.51e-05h 14
   8 -5.0677779e+00 8.66e+00 1.93e+04  -6.0 2.11e+03    -  1.38e-02 6.60e-02h  2
   9 -5.0344512e+00 8.35e+00 1.91e+04  -6.0 2.30e+03    -  4.39e-02 3.65e-02h  4
iter    objective    inf_pr   inf_du lg(mu)  ||d||  lg(rg) alpha_du alpha_pr  ls
  10 -5.0120691e+00 8.10e+00 1.90e+04  -6.0 2.38e+03    -  1.49e-01 2.90e-02h  4
  11 -4.9769139e+00 7.68e+00 1.92e+04  -6.0 2.41e+03    -  1.34e-01 5.24e-02h  3
  12 -4.9563293e+00 7.36e+00 1.92e+04  -6.0 2.51e+03    -  9.72e-02 4.10e-02h  3
  13 -4.9075255e+00 6.44e+00 2.37e+04  -6.0 3.25e+03    -  3.73e-01 1.26e-01w  1
  14 -4.8661858e+00 4.58e+01 9.27e+04  -6.0 2.87e+03    -  3.48e-01 4.82e-01w  1
  15 -4.8790962e+00 4.44e+01 8.95e+04  -6.0 1.47e+02  -4.0 2.05e-02 3.24e-02w  1
  16 -4.9441284e+00 7.13e+00 1.90e+04  -6.0 4.38e+03    -  3.73e-01 3.15e-02h  2
  17 -4.9327422e+00 6.87e+00 1.89e+04  -6.0 2.67e+03    -  2.76e-01 3.69e-02h  4
  18 -4.9237821e+00 6.60e+00 1.86e+04  -6.0 2.60e+03    -  3.09e-01 3.99e-02h  4
  19 -4.9191618e+00 6.38e+00 1.84e+04  -6.0 2.74e+03    -  1.14e-01 3.22e-02h  5
iter    objective    inf_pr   inf_du lg(mu)  ||d||  lg(rg) alpha_du alpha_pr  ls
  20 -4.9164052e+00 6.18e+00 1.81e+04  -6.0 2.64e+03    -  2.61e-01 3.26e-02h  5
  21 -4.9154002e+00 5.98e+00 1.78e+04  -6.0 2.74e+03    -  2.43e-01 3.22e-02h  5
  22 -4.9159436e+00 5.78e+00 1.74e+04  -6.0 2.72e+03    -  3.05e-01 3.28e-02h  5
  23 -4.9178626e+00 5.60e+00 1.70e+04  -6.0 2.74e+03    -  3.46e-01 3.19e-02h  5
  24 -4.9211161e+00 5.41e+00 1.65e+04  -6.0 2.69e+03    -  2.94e-01 3.32e-02h  5
  25 -4.9254679e+00 5.23e+00 1.60e+04  -6.0 2.67e+03    -  5.66e-01 3.26e-02h  5
  26 -5.0170661e+00 4.61e+01 4.58e+04  -6.0 2.55e+03    -  2.77e-01 5.59e-01w  1
  27 -5.0417256e+00 4.80e+01 4.23e+04  -6.0 9.22e+03    -  4.31e-02 5.52e-02w  1
  28 -5.0443830e+00 4.77e+01 4.21e+04  -6.0 1.17e+04    -  1.19e-03 6.19e-03w  1
  29 -4.9369177e+00 4.87e+00 1.48e+04  -6.0 8.09e+03    -  2.77e-01 6.99e-02h  3
iter    objective    inf_pr   inf_du lg(mu)  ||d||  lg(rg) alpha_du alpha_pr  ls
  30 -5.0593272e+00 4.73e+01 3.28e+04  -6.0 2.61e+03    -  6.26e-01 5.56e-01h  1
  31 -5.0822756e+00 4.77e+01 3.30e+04  -6.0 1.14e+04    -  1.10e-02 5.59e-02h  1
  32 -5.1123152e+00 4.64e+01 3.36e+04  -6.0 5.83e+03    -  5.72e-03 7.68e-02h  1
  33 -5.1486626e+00 4.62e+01 3.42e+04  -6.0 4.95e+03    -  1.08e-02 9.95e-02h  1
  34 -5.1784708e+00 6.98e+01 3.34e+04  -6.0 1.35e+04    -  4.27e-03 9.04e-02h  1
  35 -5.2574538e+00 5.31e+01 3.91e+04  -6.0 1.85e+03    -  3.82e-02 2.59e-01h  1
  36 -5.2689931e+00 5.04e+01 3.74e+04  -6.0 8.86e+02    -  3.79e-01 5.04e-02h  1
  37 -5.2841013e+00 4.70e+01 3.52e+04  -6.0 2.33e+03    -  4.82e-01 6.94e-02h  1
  38 -5.4650690e+00 9.88e+00 5.58e+04  -6.0 7.98e+02    -  1.00e+00 8.92e-01h  1
  39 -5.4695913e+00 5.10e-01 1.67e+04  -6.0 6.71e+01  -4.5 3.09e-02 1.00e+00h  1
iter    objective    inf_pr   inf_du lg(mu)  ||d||  lg(rg) alpha_du alpha_pr  ls
  40 -5.4695669e+00 3.70e-01 1.97e+04  -6.0 7.14e+01  -5.0 5.97e-02 3.22e-01h  1
  41 -5.4710266e+00 1.91e-01 9.92e+03  -6.0 1.14e+01  -5.4 2.06e-01 4.96e-01h  1
  42 -5.4772309e+00 1.81e-01 1.48e+03  -6.0 1.55e+01  -5.9 5.79e-01 1.00e+00f  1
  43 -5.4849335e+00 1.55e+00 1.17e+03  -6.0 1.91e+03    -  3.86e-01 1.49e-01h  1
  44 -5.4944834e+00 1.48e+00 7.58e+02  -6.0 5.33e+02    -  9.10e-01 2.38e-01h  1
  45 -5.4953542e+00 6.87e-01 2.80e+03  -6.0 3.13e+02    -  1.00e+00 6.21e-01h  1
  46 -5.4976550e+00 7.96e-01 4.39e+03  -6.0 5.00e+02    -  1.00e+00 2.43e-01h  1
  47 -5.5040599e+00 3.70e+00 1.48e+03  -6.0 5.51e+02    -  1.00e+00 7.88e-01h  1
  48 -5.5084718e+00 1.28e+01 6.43e+03  -6.0 1.37e+03    -  1.00e+00 5.73e-01h  1
  49 -5.5114223e+00 3.30e+01 1.55e+04  -6.0 2.61e+03    -  1.00e+00 4.68e-01h  1
iter    objective    inf_pr   inf_du lg(mu)  ||d||  lg(rg) alpha_du alpha_pr  ls
  50 -5.5174141e+00 5.46e+01 3.74e+04  -6.0 1.84e+03    -  3.26e-03 1.00e+00h  1
  51 -5.5234241e+00 3.84e+01 3.80e+04  -6.0 1.69e+03    -  5.22e-01 6.26e-01h  1
  52 -5.5316099e+00 1.26e+01 8.05e+04  -6.0 1.80e+02  -6.4 8.20e-02 6.73e-01h  1
  53r-5.5316099e+00 1.26e+01 1.00e+03   1.0 0.00e+00  -6.0 0.00e+00 3.60e-07R  3
  54r-5.5829569e+00 1.26e+01 1.00e+03   1.0 5.31e+04    -  1.03e-06 2.44e-07f  1
  55 -5.5797261e+00 1.18e+01 2.53e+04  -6.0 6.56e+00    -  2.33e-06 5.89e-02h  1
  56 -5.5675915e+00 9.03e+00 1.93e+04  -6.0 6.00e+00    -  8.55e-02 2.36e-01h  1
  57 -5.5600792e+00 7.29e+00 1.56e+04  -6.0 4.61e+00    -  4.85e-01 1.93e-01h  1
  58 -5.5434168e+00 3.42e+00 7.31e+03  -6.0 3.80e+00    -  8.16e-01 5.31e-01h  1
  59 -5.5334485e+00 1.04e+00 2.21e+03  -6.0 2.56e+00    -  4.21e-01 6.97e-01h  1
iter    objective    inf_pr   inf_du lg(mu)  ||d||  lg(rg) alpha_du alpha_pr  ls
  60 -5.5295534e+00 2.02e-04 4.88e+01  -6.0 2.20e+00    -  7.93e-01 1.00e+00h  1
  61 -5.5316811e+00 5.83e-03 7.77e+00  -6.0 1.21e+01    -  8.73e-01 1.00e+00h  1
  62 -5.5397189e+00 1.15e-01 3.86e+01  -6.0 6.36e+01    -  6.70e-01 8.43e-01h  1
  63 -5.5420392e+00 6.81e-02 6.89e+03  -6.0 6.46e+01    -  9.12e-01 1.00e+00H  1
  64 -5.5507107e+00 1.48e+00 4.94e+03  -6.0 7.83e+02    -  2.76e-01 2.83e-01h  1
  65 -5.5521570e+00 5.95e-01 4.81e+03  -6.0 9.99e+01    -  5.24e-01 9.10e-01h  1
  66 -5.5539463e+00 1.82e-01 6.16e+03  -6.0 6.52e+01  -6.4 5.87e-02 1.00e+00h  1
  67 -5.5628969e+00 1.45e+00 1.81e+03  -6.0 3.71e+02    -  4.29e-01 5.93e-01h  1
  68 -5.5739340e+00 1.43e+00 1.24e+04  -6.0 2.22e+02    -  6.77e-01 1.00e+00h  1
  69 -5.5765803e+00 1.20e+00 9.42e+04  -6.0 2.11e+02    -  8.99e-01 1.93e-01h  1
iter    objective    inf_pr   inf_du lg(mu)  ||d||  lg(rg) alpha_du alpha_pr  ls
  70 -5.5857466e+00 9.50e-01 2.96e+04  -6.0 2.11e+02    -  6.15e-01 6.49e-01h  1
  71 -5.5900323e+00 8.03e-01 2.04e+05  -6.0 2.30e+02    -  2.88e-04 2.57e-01h  1
  72 -5.6081836e+00 1.43e+00 1.92e+05  -6.0 2.25e+02    -  7.05e-01 1.00e+00h  1
  73 -5.6103441e+00 1.35e+00 2.95e+05  -6.0 3.81e+02  -6.9 6.67e-01 6.95e-02h  1
  74 -5.6119010e+00 1.10e+00 1.84e+08  -6.0 1.77e+02  -7.4 5.56e-04 1.91e-01h  1
  75 -5.6198077e+00 7.65e-01 1.25e+08  -6.0 1.08e+02  -7.9 1.89e-02 3.24e-01h  1
  76 -5.6168266e+00 2.05e-01 7.33e+06  -6.0 2.99e+01  -8.3 3.64e-01 9.41e-01h  1
  77 -5.6190640e+00 5.52e-01 5.22e+06  -6.0 1.73e+02  -8.8 8.30e-01 2.88e-01h  1
  78 -5.6231611e+00 3.89e-01 1.05e+04  -6.0 1.10e+02  -9.3 1.00e+00 1.00e+00h  1
  79 -5.6267030e+00 1.46e+00 5.35e+03  -6.0 4.33e+02    -  2.78e-01 4.90e-01h  1
iter    objective    inf_pr   inf_du lg(mu)  ||d||  lg(rg) alpha_du alpha_pr  ls
  80 -5.6184891e+00 1.54e-01 1.33e+04  -6.0 6.07e+01  -8.0 3.04e-01 1.00e+00h  1
  81 -5.6289232e+00 1.07e-01 3.52e+03  -6.0 5.50e+01  -5.7 1.00e+00 6.64e-01h  1
  82 -5.6288178e+00 9.56e-02 3.41e+02  -6.0 1.04e+02    -  1.00e+00 1.25e-01h  4
  83 -5.6285004e+00 7.97e-02 2.64e+01  -6.0 1.01e+02    -  1.00e+00 2.50e-01h  3
  84 -5.6283861e+00 7.52e-02 8.77e+02  -6.0 1.24e+02    -  1.00e+00 6.25e-02h  5
  85 -5.6283435e+00 7.36e-02 1.01e+03  -6.0 2.91e+02    -  1.00e+00 2.16e-02h  6
  86 -5.6283288e+00 7.31e-02 9.38e+02  -6.0 4.94e+02    -  7.16e-01 7.16e-03h  7
  87 -5.6283136e+00 7.26e-02 8.30e+02  -6.0 6.00e+02    -  1.00e+00 7.24e-03h  7
  88 -5.6282984e+00 7.21e-02 8.37e+02  -6.0 6.01e+02    -  4.19e-01 7.22e-03h  7
  89 -5.6282865e+00 7.17e-02 6.71e+02  -6.0 8.05e+02    -  1.00e+00 5.49e-03h  7
iter    objective    inf_pr   inf_du lg(mu)  ||d||  lg(rg) alpha_du alpha_pr  ls
  90 -5.6282422e+00 7.02e-02 9.28e+02  -6.0 3.78e+02    -  6.06e-01 2.17e-02h  6
  91 -5.6282281e+00 6.97e-02 9.14e+02  -6.0 6.61e+02    -  1.00e+00 6.55e-03h  7
  92 -5.6262250e+00 4.28e-01 4.31e+01  -6.0 1.69e+02    -  1.00e+00 1.00e+00w  1
  93 -5.6261582e+00 3.99e-02 1.48e+05  -6.0 3.12e+01  -5.3 6.51e-02 1.00e+00h  1
  94 -5.6258065e+00 2.76e-02 1.02e+05  -6.0 6.05e+00  -4.9 2.85e-01 3.08e-01h  1
  95 -5.6258345e+00 2.71e-02 1.00e+05  -6.0 7.96e+02    -  3.66e-01 1.90e-02h  3
  96 -5.6258803e+00 2.63e-02 9.71e+04  -6.0 7.89e+02    -  1.00e+00 3.02e-02h  4
  97 -5.6286024e+00 1.88e+00 7.81e+03  -6.0 7.59e+02    -  3.27e-01 9.56e-01H  1
  98 -5.6293422e+00 8.50e+00 7.62e+07  -6.0 7.36e+02    -  9.97e-04 1.00e+00h  1
  99 -5.6263985e+00 1.09e-03 1.05e+02  -6.0 2.41e+00  -3.6 2.54e-01 1.00e+00h  1
iter    objective    inf_pr   inf_du lg(mu)  ||d||  lg(rg) alpha_du alpha_pr  ls
 100 -5.6265746e+00 3.48e-04 9.21e+00  -6.0 8.34e-01  -4.0 1.00e+00 7.68e-01h  1
 101 -5.6270839e+00 3.54e-03 7.83e-01  -6.0 1.42e+00  -4.5 1.00e+00 1.00e+00f  1
 102 -5.6294602e+00 4.26e+00 1.91e+01  -6.0 5.31e+02    -  5.89e-01 1.00e+00h  1
 103 -5.6283404e+00 1.02e-01 5.72e-02  -6.0 7.46e+01    -  1.00e+00 1.00e+00h  1
 104 -5.6283229e+00 3.54e-03 4.05e-03  -6.0 1.41e+01    -  1.00e+00 1.00e+00h  1
 105 -5.6283227e+00 1.84e-06 3.81e-06  -6.0 3.20e-01    -  1.00e+00 1.00e+00h  1
 106 -5.6284655e+00 2.83e+00 1.07e+01  -7.5 6.74e+02    -  6.59e-01 6.35e-01h  1
 107 -5.6284795e+00 1.29e+00 1.61e+01  -7.5 2.72e+02    -  9.94e-01 8.42e-01h  1
 108 -5.6284697e+00 2.35e-02 1.21e-01  -7.5 3.71e+01    -  1.00e+00 1.00e+00h  1
 109 -5.6284693e+00 2.17e-05 6.89e-06  -7.5 1.19e+00    -  1.00e+00 1.00e+00h  1
iter    objective    inf_pr   inf_du lg(mu)  ||d||  lg(rg) alpha_du alpha_pr  ls
 110 -5.6284693e+00 2.91e-10 2.04e-11  -7.5 2.17e-04    -  1.00e+00 1.00e+00h  1
 111 -5.6284709e+00 5.52e-03 9.79e-01  -9.0 2.25e+01    -  9.33e-01 8.26e-01h  1
 112 -5.6284712e+00 2.46e-04 9.67e-04  -9.0 3.92e+00    -  1.00e+00 1.00e+00h  1
 113 -5.6284712e+00 3.82e-10 3.29e-09  -9.0 5.13e-03    -  1.00e+00 1.00e+00h  1

Number of Iterations....: 113

                                   (scaled)                 (unscaled)
Objective...............:  -4.3972431282018727e+00   -5.6284712040983971e+00
Dual infeasibility......:   3.2904216320690251e-09    4.2117396890483525e-09
Constraint violation....:   3.2046883126791298e-10    3.8198777474462986e-10
Complementarity.........:   1.2450856878553179e-09    1.5937096804548069e-09
Overall NLP error.......:   3.2904216320690251e-09    4.2117396890483525e-09


Number of objective function evaluations             = 328
Number of objective gradient evaluations             = 114
Number of equality constraint evaluations            = 328
Number of inequality constraint evaluations          = 328
Number of equality constraint Jacobian evaluations   = 115
Number of inequality constraint Jacobian evaluations = 115
Number of Lagrangian Hessian evaluations             = 113
Total CPU secs in IPOPT (w/o function evaluations)   =    250.036
Total CPU secs in NLP function evaluations           =      5.673

EXIT: Optimal Solution Found.
